(declare-fun ExpandObjSwitcher () Real)
(declare-fun CreateAsClass () Bool)
(declare-fun ExpandObjSwitcher_2 () Real)
(declare-fun Constructed_Argument_t () String)
(declare-fun CreateAsClass_2 () Bool)
(declare-fun ExpandObjSwitcher_3 () Real)
(declare-fun Constructed_Argument_2_t () String)
(declare-fun CreateAsClass_3 () Bool)
(declare-fun ExpandObjSwitcher_4 () Real)
(declare-fun Constructed_Argument_3_t () String)
(declare-fun CreateAsClass_4 () Bool)
(declare-fun ExpandObjSwitcher_5 () Real)
(assert (= ExpandObjSwitcher 1.0))
(assert (not CreateAsClass))
(assert (= ExpandObjSwitcher_2 10.0))
(assert (not (= Constructed_Argument_t "string")))
(assert (not (= Constructed_Argument_t "number")))
(assert (not (= Constructed_Argument_t "boolean")))
(assert (not (= Constructed_Argument_t "object")))
(assert (not (= Constructed_Argument_t "array_number")))
(assert (not (= Constructed_Argument_t "array_string")))
(assert (not (= Constructed_Argument_t "array_bool")))
(assert (not (= Constructed_Argument_t "null")))
(assert (not CreateAsClass_2))
(assert (= ExpandObjSwitcher_3 10.0))
(assert (not (= Constructed_Argument_2_t "string")))
(assert (not (= Constructed_Argument_2_t "number")))
(assert (not (= Constructed_Argument_2_t "boolean")))
(assert (not (= Constructed_Argument_2_t "object")))
(assert (not (= Constructed_Argument_2_t "array_number")))
(assert (not (= Constructed_Argument_2_t "array_string")))
(assert (not (= Constructed_Argument_2_t "array_bool")))
(assert (not (= Constructed_Argument_2_t "null")))
(assert (not CreateAsClass_3))
(assert (= ExpandObjSwitcher_4 10.0))
(assert (not (= Constructed_Argument_3_t "string")))
(assert (not (= Constructed_Argument_3_t "number")))
(assert (not (= Constructed_Argument_3_t "boolean")))
(assert (not (= Constructed_Argument_3_t "object")))
(assert (not (= Constructed_Argument_3_t "array_number")))
(assert (not (= Constructed_Argument_3_t "array_string")))
(assert (not (= Constructed_Argument_3_t "array_bool")))
(assert (not (= Constructed_Argument_3_t "null")))
(assert (not CreateAsClass_4))
(assert (not (= ExpandObjSwitcher_5 0.0)))
(assert (not (= ExpandObjSwitcher_5 1.0)))
(assert (not (= ExpandObjSwitcher_5 2.0)))
(assert (not (= ExpandObjSwitcher_5 3.0)))
(assert (not (= ExpandObjSwitcher_5 4.0)))
(assert (not (= ExpandObjSwitcher_5 5.0)))
(assert (not (= ExpandObjSwitcher_5 6.0)))
(assert (not (= ExpandObjSwitcher_5 7.0)))
(assert (not (= ExpandObjSwitcher_5 8.0)))
(assert (not (= ExpandObjSwitcher_5 9.0)))
(assert (not (= ExpandObjSwitcher_5 10.0)))
(assert (= ExpandObjSwitcher_5 11.0))
(assert false)
(check-sat)
